%nproc=16
%chk=butadiene-sgp
# B3LYP/6-31G* POP=NBO6Read
  
1,3-butadiene single-point calc.

0 1
     6    1.339919   -0.922552   -0.000000
     6    0.000000   -0.926478    0.000000
     6   -0.894356    0.241893    0.000000
     6   -0.540716    1.534311   -0.000000
     1    1.921683   -0.004033   -0.000000
     1    1.904522   -1.850053   -0.000000
     1   -0.506630   -1.891193    0.000000
     1   -1.957882    0.004699    0.000000
     1    0.497843    1.856036   -0.000000
     1   -1.288622    2.321503    0.000000

$NBO
  NOBOND
  AONAO=W
$END

