%nproc=28
%chk=DA_P
# M062X/Def2SVP EM=GD3 POP=NBO6Read

Product

0 1
     6   -0.177418    0.818552   -1.680938
     6   -0.118067    0.820905   -0.154758
     1    0.331423    1.702695   -2.092705
     1   -1.234625    0.891203   -1.981181
     1   -0.510485    1.772609    0.251826
     6    0.436544   -0.469033   -2.227046
     6   -0.093282   -1.681006   -1.511251
     6   -0.721863   -1.617349   -0.335227
     6   -0.958393   -0.330627    0.412641
     1    0.247159   -0.556987   -3.307512
     1    1.533660   -0.440113   -2.108061
     1    0.060877   -2.656027   -1.981724
     1   -1.088872   -2.537827    0.129318
     1   -2.020958   -0.038289    0.362779
     8    1.196295    0.621131    0.320249
     6   -0.630727   -0.451938    1.895663
     1    0.106380   -1.245174    2.168437
     8   -1.113183    0.265688    2.726032
     6    2.061394    1.703189    0.125765
     1    2.987528    1.489693    0.673481
     1    2.314022    1.852550   -0.939074
     1    1.626607    2.641303    0.516258

$NBO
  NOBOND
  AONAO=W
$END


