%nproc=28
%chk=DA_R
# M062X/Def2SVP EM=GD3 POP=NBO6Read

Reactant complex

0 1
     6   -0.079272    2.361291   -1.154295
     6    0.066395    2.002084    0.126446
     1    0.663231    2.149063   -1.923336
     1   -0.973979    2.910255   -1.443332
     1   -0.690757    2.216824    0.885170
     6   -0.291375   -1.406689   -2.569216
     6    0.018835   -2.256973   -1.583537
     6   -0.026558   -1.907981   -0.158817
     6   -0.837041   -0.986493    0.385775
     1   -0.575639   -0.372079   -2.353173
     1   -0.250868   -1.715586   -3.615019
     1    0.354533   -3.268238   -1.831356
     1    0.663094   -2.444019    0.504921
     1   -1.581754   -0.442709   -0.202003
     8    1.094918    1.326766    0.670376
     6   -0.738329   -0.642377    1.815647
     1    0.015116   -1.236250    2.390580
     8   -1.400086    0.209978    2.349717
     6    2.114353    0.909843   -0.198821
     1    2.849257    0.365160    0.404622
     1    1.714525    0.243911   -0.983534
     1    2.603955    1.773611   -0.679129

$NBO
  NOBOND
  AONAO=W
$END


