%nproc=28
# B3LYP/Def2TZVPP fchk=All Pop=NBO6Read SCFCYC=250 NOSYMM

HF_NH3

0 1
     9   -0.081275   -1.629407   -0.000000
     1    0.533985   -2.316781   -0.000000
     1   -0.163083    0.737712    0.000000
     7   -0.081275    1.748212    0.000000
     1    0.464746    2.003125    0.814111
     1    0.464746    2.003125   -0.814111

$NBO
NOBOND
AONAO=W
BNDIDX
$END

