%nproc=28
# B3LYP/Def2TZVPP fchk=All Pop=NBO6Read SCFCYC=250 NOSYMM

NH3_HF

0 1
     9    0.000000    0.000000    1.425757
     1    0.000000    0.000000    0.467071
     7    0.000000    0.000000   -1.220073
     1   -0.000000    0.944729   -1.586125
     1   -0.818159   -0.472365   -1.586125
     1    0.818159   -0.472365   -1.586125

$NBO
NOBOND
AONAO=W
BNDIDX
$END

