# B3LYP/Def2TZVPP fchk=All Pop=NBO6Read SCFCYC=250 NOSYMM

optimized at B3LYP/Def2TZVPP, see: ~/work/cases/MBFO/calc/PhX/opt/Ph_opt_symm.out

0 1
 6         0.000000    1.390720    0.000000
 6        -1.204399    0.695360    0.000000
 6        -1.204399   -0.695360    0.000000
 6         0.000000   -1.390720    0.000000
 6         1.204399   -0.695360   -0.000000
 6         1.204399    0.695360   -0.000000
 1         0.000000    2.472848    0.000000
 1        -2.141549   -1.236424    0.000000
 1         0.000000   -2.472848    0.000000
 1         2.141549   -1.236424   -0.000000
 1         2.141549    1.236424   -0.000000
 1        -2.141549    1.236424    0.000000

$NBO
  AONAO=W
  BNDIDX
$END


